certificates/rado_a9_c109_N17.cnf
c Rad2 upper bound instance: x1 + 9*x2 - x3 = 109, interval [1,17]
p cnf 17 62
1 9 13 0
-1 -9 -13 0
1 2 12 0
-1 -2 -12 0
2 10 13 0
-2 -10 -13 0
2 3 12 0
-2 -3 -12 0
3 11 13 0
-3 -11 -13 0
3 4 12 0
-3 -4 -12 0
4 12 13 0
-4 -12 -13 0
4 5 12 0
-4 -5 -12 0
5 13 0
-5 -13 0
5 6 12 0
-5 -6 -12 0
6 13 14 0
-6 -13 -14 0
6 7 12 0
-6 -7 -12 0
7 13 15 0
-7 -13 -15 0
7 8 12 0
-7 -8 -12 0
8 13 16 0
-8 -13 -16 0
8 9 12 0
-8 -9 -12 0
9 13 17 0
-9 -13 -17 0
9 10 12 0
-9 -10 -12 0
1 11 0
-1 -11 0
10 11 12 0
-10 -11 -12 0
2 11 12 0
-2 -11 -12 0
11 12 0
-11 -12 0
12 13 0
-12 -13 0
4 11 14 0
-4 -11 -14 0
12 13 14 0
-12 -13 -14 0
5 11 15 0
-5 -11 -15 0
12 14 15 0
-12 -14 -15 0
6 11 16 0
-6 -11 -16 0
12 15 16 0
-12 -15 -16 0
7 11 17 0
-7 -11 -17 0
12 16 17 0
-12 -16 -17 0
