certificates/rado_a9_c109_N17.drat
-16 -17 0
d -16 -12 -17 0
12 -17 0
-17 0
-12 0
11 0
13 0
16 0
-1 0
-6 0
-5 0
-3 0
-8 0
2 0
0
